\ Model Sub Problem
\ LP format - for model browsing. Use MPS format to capture full model detail.
Minimize
 
Subject To
 R0: a[12] - a[13] = 0
 R1: 806 x[1,2] + 2316 x[1,3] + 3011 x[1,4] + 3017 x[1,5] + 3161 x[1,6]
   + 3944 x[1,7] + 4672 x[1,8] + 972 x[1,9] + 2370 x[1,10] + 1271 x[1,11]
   + 2528 x[1,12] + 2245 x[1,13] + 4128 x[1,14] + 809 x[2,1] + 2071 x[2,3]
   + 3479 x[2,4] + 3485 x[2,5] + 2916 x[2,6] + 4412 x[2,7] + 5137 x[2,8]
   + 1340 x[2,9] + 2124 x[2,10] + 1701 x[2,11] + 2996 x[2,12]
   + 2713 x[2,13] + 3530 x[2,14] + 2280 x[3,1] + 1970 x[3,2] + 3613 x[3,4]
   + 4549 x[3,5] + 958 x[3,6] + 4566 x[3,7] + 3066 x[3,8] + 3142 x[3,9]
   + 527 x[3,10] + 1876 x[3,11] + 4060 x[3,12] + 3777 x[3,13]
   + 1925 x[3,14] + 3135 x[4,1] + 3638 x[4,2] + 3583 x[4,3] + 2301 x[4,5]
   + 4515 x[4,6] + 953 x[4,7] + 3594 x[4,8] + 3895 x[4,9] + 3724 x[4,10]
   + 3021 x[4,11] + 1812 x[4,12] + 2716 x[4,13] + 5482 x[4,14]
   + 3081 x[5,1] + 3584 x[5,2] + 4663 x[5,3] + 2260 x[5,4] + 5507 x[5,6]
   + 3193 x[5,7] + 3921 x[5,8] + 3841 x[5,9] + 4716 x[5,10] + 2967 x[5,11]
   + 499 x[5,12] + 1212 x[5,13] + 6475 x[5,14] + 3137 x[6,1] + 2827 x[6,2]
   + 926 x[6,3] + 4482 x[6,4] + 5405 x[6,5] + 5435 x[6,7] + 3992 x[6,8]
   + 3999 x[6,9] + 1383 x[6,10] + 2733 x[6,11] + 4916 x[6,12]
   + 4634 x[6,13] + 1954 x[6,14] + 4091 x[7,1] + 4594 x[7,2] + 4540 x[7,3]
   + 957 x[7,4] + 3246 x[7,5] + 5472 x[7,6] + 4539 x[7,8] + 4852 x[7,9]
   + 4680 x[7,10] + 3977 x[7,11] + 2757 x[7,12] + 3673 x[7,13]
   + 6439 x[7,14] + 4923 x[8,1] + 5011 x[8,2] + 3041 x[8,3] + 3755 x[8,4]
   + 3965 x[8,5] + 3999 x[8,6] + 4688 x[8,7] + 5683 x[8,9] + 3568 x[8,10]
   + 4809 x[8,11] + 3476 x[8,12] + 4505 x[8,13] + 4967 x[8,14]
   + 1031 x[9,1] + 1304 x[9,2] + 3115 x[9,3] + 3809 x[9,4] + 3815 x[9,5]
   + 3960 x[9,6] + 4743 x[9,7] + 5470 x[9,8] + 3168 x[9,10] + 2069 x[9,11]
   + 3326 x[9,12] + 3044 x[9,13] + 4775 x[9,14] + 2375 x[10,1]
   + 2065 x[10,2] + 530 x[10,3] + 3721 x[10,4] + 4644 x[10,5]
   + 1374 x[10,6] + 4673 x[10,7] + 3596 x[10,8] + 3237 x[10,9]
   + 1971 x[10,11] + 4155 x[10,12] + 3873 x[10,13] + 2342 x[10,14]
   + 1282 x[11,1] + 1604 x[11,2] + 1933 x[11,3] + 2889 x[11,4]
   + 2895 x[11,5] + 2778 x[11,6] + 3822 x[11,7] + 4550 x[11,8]
   + 2143 x[11,9] + 1986 x[11,10] + 2406 x[11,12] + 2279 x[11,13]
   + 3745 x[11,14] + 2582 x[12,1] + 3085 x[12,2] + 4164 x[12,3]
   + 1761 x[12,4] + 489 x[12,5] + 5008 x[12,6] + 2694 x[12,7]
   + 3422 x[12,8] + 3342 x[12,9] + 4217 x[12,10] + 2468 x[12,11]
   + 1029 x[12,13] + 5976 x[12,14] + 2262 x[13,1] + 2765 x[13,2]
   + 3844 x[13,3] + 2773 x[13,4] + 1217 x[13,5] + 4689 x[13,6]
   + 3707 x[13,7] + 4434 x[13,8] + 3023 x[13,9] + 3898 x[13,10]
   + 2301 x[13,11] + 1012 x[13,12] + 5656 x[13,14] + 4134 x[14,1]
   + 3508 x[14,2] + 1923 x[14,3] + 5479 x[14,4] + 6403 x[14,5]
   + 1946 x[14,6] + 6432 x[14,7] + 4990 x[14,8] + 4816 x[14,9]
   + 2381 x[14,10] + 3730 x[14,11] + 5914 x[14,12] + 5631 x[14,13]
   + 840 x[0,1] + 1440 x[0,2] + 2880 x[0,3] + 3540 x[0,4] + 3540 x[0,5]
   + 3720 x[0,6] + 4500 x[0,7] + 5220 x[0,8] + 1440 x[0,9] + 2880 x[0,10]
   + 1800 x[0,11] + 3060 x[0,12] + 2760 x[0,13] + 4680 x[0,14] <= 30995
 R2: x[0,1] + x[0,2] + x[0,3] + x[0,4] + x[0,5] + x[0,6] + x[0,7] + x[0,8]
   + x[0,9] + x[0,10] + x[0,11] + x[0,12] + x[0,13] + x[0,14] = 1
 R3: x[1,16] + x[2,16] + x[3,16] + x[4,16] + x[5,16] + x[6,16] + x[7,16]
   + x[8,16] + x[9,16] + x[10,16] + x[11,16] + x[12,16] + x[13,16]
   + x[14,16] = 1
 R4: - x[1,2] - x[1,3] - x[1,4] - x[1,5] - x[1,6] - x[1,7] - x[1,8]
   - x[1,9] - x[1,10] - x[1,11] - x[1,12] - x[1,13] - x[1,14] + x[2,1]
   + x[3,1] + x[4,1] + x[5,1] + x[6,1] + x[7,1] + x[8,1] + x[9,1] + x[10,1]
   + x[11,1] + x[12,1] + x[13,1] + x[14,1] + x[0,1] - x[1,16] = 0
 R5: x[1,2] - x[2,1] - x[2,3] - x[2,4] - x[2,5] - x[2,6] - x[2,7] - x[2,8]
   - x[2,9] - x[2,10] - x[2,11] - x[2,12] - x[2,13] - x[2,14] + x[3,2]
   + x[4,2] + x[5,2] + x[6,2] + x[7,2] + x[8,2] + x[9,2] + x[10,2]
   + x[11,2] + x[12,2] + x[13,2] + x[14,2] + x[0,2] - x[2,16] = 0
 R6: x[1,3] + x[2,3] - x[3,1] - x[3,2] - x[3,4] - x[3,5] - x[3,6] - x[3,7]
   - x[3,8] - x[3,9] - x[3,10] - x[3,11] - x[3,12] - x[3,13] - x[3,14]
   + x[4,3] + x[5,3] + x[6,3] + x[7,3] + x[8,3] + x[9,3] + x[10,3]
   + x[11,3] + x[12,3] + x[13,3] + x[14,3] + x[0,3] - x[3,16] = 0
 R7: x[1,4] + x[2,4] + x[3,4] - x[4,1] - x[4,2] - x[4,3] - x[4,5] - x[4,6]
   - x[4,7] - x[4,8] - x[4,9] - x[4,10] - x[4,11] - x[4,12] - x[4,13]
   - x[4,14] + x[5,4] + x[6,4] + x[7,4] + x[8,4] + x[9,4] + x[10,4]
   + x[11,4] + x[12,4] + x[13,4] + x[14,4] + x[0,4] - x[4,16] = 0
 R8: x[1,5] + x[2,5] + x[3,5] + x[4,5] - x[5,1] - x[5,2] - x[5,3] - x[5,4]
   - x[5,6] - x[5,7] - x[5,8] - x[5,9] - x[5,10] - x[5,11] - x[5,12]
   - x[5,13] - x[5,14] + x[6,5] + x[7,5] + x[8,5] + x[9,5] + x[10,5]
   + x[11,5] + x[12,5] + x[13,5] + x[14,5] + x[0,5] - x[5,16] = 0
 R9: x[1,6] + x[2,6] + x[3,6] + x[4,6] + x[5,6] - x[6,1] - x[6,2] - x[6,3]
   - x[6,4] - x[6,5] - x[6,7] - x[6,8] - x[6,9] - x[6,10] - x[6,11]
   - x[6,12] - x[6,13] - x[6,14] + x[7,6] + x[8,6] + x[9,6] + x[10,6]
   + x[11,6] + x[12,6] + x[13,6] + x[14,6] + x[0,6] - x[6,16] = 0
 R10: x[1,7] + x[2,7] + x[3,7] + x[4,7] + x[5,7] + x[6,7] - x[7,1] - x[7,2]
   - x[7,3] - x[7,4] - x[7,5] - x[7,6] - x[7,8] - x[7,9] - x[7,10]
   - x[7,11] - x[7,12] - x[7,13] - x[7,14] + x[8,7] + x[9,7] + x[10,7]
   + x[11,7] + x[12,7] + x[13,7] + x[14,7] + x[0,7] - x[7,16] = 0
 R11: x[1,8] + x[2,8] + x[3,8] + x[4,8] + x[5,8] + x[6,8] + x[7,8] - x[8,1]
   - x[8,2] - x[8,3] - x[8,4] - x[8,5] - x[8,6] - x[8,7] - x[8,9] - x[8,10]
   - x[8,11] - x[8,12] - x[8,13] - x[8,14] + x[9,8] + x[10,8] + x[11,8]
   + x[12,8] + x[13,8] + x[14,8] + x[0,8] - x[8,16] = 0
 R12: x[1,9] + x[2,9] + x[3,9] + x[4,9] + x[5,9] + x[6,9] + x[7,9] + x[8,9]
   - x[9,1] - x[9,2] - x[9,3] - x[9,4] - x[9,5] - x[9,6] - x[9,7] - x[9,8]
   - x[9,10] - x[9,11] - x[9,12] - x[9,13] - x[9,14] + x[10,9] + x[11,9]
   + x[12,9] + x[13,9] + x[14,9] + x[0,9] - x[9,16] = 0
 R13: x[1,10] + x[2,10] + x[3,10] + x[4,10] + x[5,10] + x[6,10] + x[7,10]
   + x[8,10] + x[9,10] - x[10,1] - x[10,2] - x[10,3] - x[10,4] - x[10,5]
   - x[10,6] - x[10,7] - x[10,8] - x[10,9] - x[10,11] - x[10,12] - x[10,13]
   - x[10,14] + x[11,10] + x[12,10] + x[13,10] + x[14,10] + x[0,10]
   - x[10,16] = 0
 R14: x[1,11] + x[2,11] + x[3,11] + x[4,11] + x[5,11] + x[6,11] + x[7,11]
   + x[8,11] + x[9,11] + x[10,11] - x[11,1] - x[11,2] - x[11,3] - x[11,4]
   - x[11,5] - x[11,6] - x[11,7] - x[11,8] - x[11,9] - x[11,10] - x[11,12]
   - x[11,13] - x[11,14] + x[12,11] + x[13,11] + x[14,11] + x[0,11]
   - x[11,16] = 0
 R15: x[1,12] + x[2,12] + x[3,12] + x[4,12] + x[5,12] + x[6,12] + x[7,12]
   + x[8,12] + x[9,12] + x[10,12] + x[11,12] - x[12,1] - x[12,2] - x[12,3]
   - x[12,4] - x[12,5] - x[12,6] - x[12,7] - x[12,8] - x[12,9] - x[12,10]
   - x[12,11] - x[12,13] - x[12,14] + x[13,12] + x[14,12] + x[0,12]
   - x[12,16] = 0
 R16: x[1,13] + x[2,13] + x[3,13] + x[4,13] + x[5,13] + x[6,13] + x[7,13]
   + x[8,13] + x[9,13] + x[10,13] + x[11,13] + x[12,13] - x[13,1] - x[13,2]
   - x[13,3] - x[13,4] - x[13,5] - x[13,6] - x[13,7] - x[13,8] - x[13,9]
   - x[13,10] - x[13,11] - x[13,12] - x[13,14] + x[14,13] + x[0,13]
   - x[13,16] = 0
 R17: x[1,14] + x[2,14] + x[3,14] + x[4,14] + x[5,14] + x[6,14] + x[7,14]
   + x[8,14] + x[9,14] + x[10,14] + x[11,14] + x[12,14] + x[13,14]
   - x[14,1] - x[14,2] - x[14,3] - x[14,4] - x[14,5] - x[14,6] - x[14,7]
   - x[14,8] - x[14,9] - x[14,10] - x[14,11] - x[14,12] - x[14,13]
   + x[0,14] - x[14,16] = 0
 R18: x[0,1] + x[0,2] + x[0,3] + x[0,4] + x[0,5] + x[0,6] + x[0,7] + x[0,8]
   + x[0,9] + x[0,10] + x[0,11] + x[0,12] + x[0,13] + x[0,14] - a[0] = 0
 R19: x[1,2] + x[1,3] + x[1,4] + x[1,5] + x[1,6] + x[1,7] + x[1,8] + x[1,9]
   + x[1,10] + x[1,11] + x[1,12] + x[1,13] + x[1,14] + x[1,16] - a[1] = 0
 R20: x[2,1] + x[2,3] + x[2,4] + x[2,5] + x[2,6] + x[2,7] + x[2,8] + x[2,9]
   + x[2,10] + x[2,11] + x[2,12] + x[2,13] + x[2,14] + x[2,16] - a[2] = 0
 R21: x[3,1] + x[3,2] + x[3,4] + x[3,5] + x[3,6] + x[3,7] + x[3,8] + x[3,9]
   + x[3,10] + x[3,11] + x[3,12] + x[3,13] + x[3,14] + x[3,16] - a[3] = 0
 R22: x[4,1] + x[4,2] + x[4,3] + x[4,5] + x[4,6] + x[4,7] + x[4,8] + x[4,9]
   + x[4,10] + x[4,11] + x[4,12] + x[4,13] + x[4,14] + x[4,16] - a[4] = 0
 R23: x[5,1] + x[5,2] + x[5,3] + x[5,4] + x[5,6] + x[5,7] + x[5,8] + x[5,9]
   + x[5,10] + x[5,11] + x[5,12] + x[5,13] + x[5,14] + x[5,16] - a[5] = 0
 R24: x[6,1] + x[6,2] + x[6,3] + x[6,4] + x[6,5] + x[6,7] + x[6,8] + x[6,9]
   + x[6,10] + x[6,11] + x[6,12] + x[6,13] + x[6,14] + x[6,16] - a[6] = 0
 R25: x[7,1] + x[7,2] + x[7,3] + x[7,4] + x[7,5] + x[7,6] + x[7,8] + x[7,9]
   + x[7,10] + x[7,11] + x[7,12] + x[7,13] + x[7,14] + x[7,16] - a[7] = 0
 R26: x[8,1] + x[8,2] + x[8,3] + x[8,4] + x[8,5] + x[8,6] + x[8,7] + x[8,9]
   + x[8,10] + x[8,11] + x[8,12] + x[8,13] + x[8,14] + x[8,16] - a[8] = 0
 R27: x[9,1] + x[9,2] + x[9,3] + x[9,4] + x[9,5] + x[9,6] + x[9,7] + x[9,8]
   + x[9,10] + x[9,11] + x[9,12] + x[9,13] + x[9,14] + x[9,16] - a[9] = 0
 R28: x[10,1] + x[10,2] + x[10,3] + x[10,4] + x[10,5] + x[10,6] + x[10,7]
   + x[10,8] + x[10,9] + x[10,11] + x[10,12] + x[10,13] + x[10,14]
   + x[10,16] - a[10] = 0
 R29: x[11,1] + x[11,2] + x[11,3] + x[11,4] + x[11,5] + x[11,6] + x[11,7]
   + x[11,8] + x[11,9] + x[11,10] + x[11,12] + x[11,13] + x[11,14]
   + x[11,16] - a[11] = 0
 R30: x[12,1] + x[12,2] + x[12,3] + x[12,4] + x[12,5] + x[12,6] + x[12,7]
   + x[12,8] + x[12,9] + x[12,10] + x[12,11] + x[12,13] + x[12,14]
   + x[12,16] - a[12] = 0
 R31: x[13,1] + x[13,2] + x[13,3] + x[13,4] + x[13,5] + x[13,6] + x[13,7]
   + x[13,8] + x[13,9] + x[13,10] + x[13,11] + x[13,12] + x[13,14]
   + x[13,16] - a[13] = 0
 R32: x[14,1] + x[14,2] + x[14,3] + x[14,4] + x[14,5] + x[14,6] + x[14,7]
   + x[14,8] + x[14,9] + x[14,10] + x[14,11] + x[14,12] + x[14,13]
   + x[14,16] - a[14] = 0
 R33: - a[16] = 0
 R34: - 138666.6991386797 a[1] + q[1] <= 0
 R35: - 9887.442056576825 a[2] + q[2] <= 0
 R36: - 2900.371786347658 a[3] + q[3] <= 0
 R37: - 1170.228595739474 a[4] + q[4] <= 0
 R38: - 2792.375852857039 a[5] + q[5] <= 0
 R39: - 2272.157698136121 a[6] + q[6] <= 0
 R40: - 1317.440795583811 a[7] + q[7] <= 0
 R41: - 1538.885709768198 a[8] + q[8] <= 0
 R42: - 3477.998114114699 a[9] + q[9] <= 0
 R43: - 1190.072371234249 a[10] + q[10] <= 0
 R44: - 4466.793710090413 a[11] + q[11] <= 0
 R45: - 1207.700333993255 a[12] + q[12] <= 0
 R46: - 4407.761553709062 a[13] + q[13] <= 0
 R47: - 1482.567739978896 a[14] + q[14] <= 0
 R48: q[1] + q[2] + q[3] + q[4] + q[5] + q[6] + q[7] + q[8] + q[9] + q[10]
   + q[11] + q[12] + q[13] + q[14] <= 8250
Bounds
Binaries
 x[1,2] x[1,3] x[1,4] x[1,5] x[1,6] x[1,7] x[1,8] x[1,9] x[1,10] x[1,11]
 x[1,12] x[1,13] x[1,14] x[2,1] x[2,3] x[2,4] x[2,5] x[2,6] x[2,7] x[2,8]
 x[2,9] x[2,10] x[2,11] x[2,12] x[2,13] x[2,14] x[3,1] x[3,2] x[3,4] x[3,5]
 x[3,6] x[3,7] x[3,8] x[3,9] x[3,10] x[3,11] x[3,12] x[3,13] x[3,14] x[4,1]
 x[4,2] x[4,3] x[4,5] x[4,6] x[4,7] x[4,8] x[4,9] x[4,10] x[4,11] x[4,12]
 x[4,13] x[4,14] x[5,1] x[5,2] x[5,3] x[5,4] x[5,6] x[5,7] x[5,8] x[5,9]
 x[5,10] x[5,11] x[5,12] x[5,13] x[5,14] x[6,1] x[6,2] x[6,3] x[6,4] x[6,5]
 x[6,7] x[6,8] x[6,9] x[6,10] x[6,11] x[6,12] x[6,13] x[6,14] x[7,1] x[7,2]
 x[7,3] x[7,4] x[7,5] x[7,6] x[7,8] x[7,9] x[7,10] x[7,11] x[7,12] x[7,13]
 x[7,14] x[8,1] x[8,2] x[8,3] x[8,4] x[8,5] x[8,6] x[8,7] x[8,9] x[8,10]
 x[8,11] x[8,12] x[8,13] x[8,14] x[9,1] x[9,2] x[9,3] x[9,4] x[9,5] x[9,6]
 x[9,7] x[9,8] x[9,10] x[9,11] x[9,12] x[9,13] x[9,14] x[10,1] x[10,2]
 x[10,3] x[10,4] x[10,5] x[10,6] x[10,7] x[10,8] x[10,9] x[10,11] x[10,12]
 x[10,13] x[10,14] x[11,1] x[11,2] x[11,3] x[11,4] x[11,5] x[11,6] x[11,7]
 x[11,8] x[11,9] x[11,10] x[11,12] x[11,13] x[11,14] x[12,1] x[12,2]
 x[12,3] x[12,4] x[12,5] x[12,6] x[12,7] x[12,8] x[12,9] x[12,10] x[12,11]
 x[12,13] x[12,14] x[13,1] x[13,2] x[13,3] x[13,4] x[13,5] x[13,6] x[13,7]
 x[13,8] x[13,9] x[13,10] x[13,11] x[13,12] x[13,14] x[14,1] x[14,2]
 x[14,3] x[14,4] x[14,5] x[14,6] x[14,7] x[14,8] x[14,9] x[14,10] x[14,11]
 x[14,12] x[14,13] x[0,1] x[0,2] x[0,3] x[0,4] x[0,5] x[0,6] x[0,7] x[0,8]
 x[0,9] x[0,10] x[0,11] x[0,12] x[0,13] x[0,14] x[1,16] x[2,16] x[3,16]
 x[4,16] x[5,16] x[6,16] x[7,16] x[8,16] x[9,16] x[10,16] x[11,16] x[12,16]
 x[13,16] x[14,16] a[0] a[1] a[2] a[3] a[4] a[5] a[6] a[7] a[8] a[9] a[10]
 a[11] a[12] a[13] a[14] a[16]
End
